43953 52854
28446 46885
53186 189
14820 15561
28356 9750
13569 62831
46024 46832
17922 46336
17762 60150
13693 5390
30956 49901
13665 63690
4093 7076
49592 32811
29786 32478
5696 23777
43200 21104
10418 42702
17709 16821
11632 40314
38415 52543
42087 51458
65260 8427
25504 34826
2282 33727
62007 14249
20715 30899
30720 59421
60290 64003
42061 13807
27845 53671
45019 5018
26388 63279
24056 59566
2811 32168
58541 11257
40800 27994
5403 56200
21300 41460
8264 45438
5404 30967
62535 51730
57360 2937
17128 15421
39372 17077
49744 39798
24615 36971
20197 16640
38023 24436
7843 33791
27956 29706
65026 39902
44708 42911
12207 6097
32306 22851
12281 20341
45387 22211
64305 24453
4176 31608
42256 10128
35463 59400
17685 56726
49196 18458
18937 32742
14054 44356
1566 41200
13353 935
